2100145
83,80,45,28,15,106,93,29,5,60,84,3,73,16,79,52,96,70,46,64,59,77,77,107,12,20,47,14,22,99,101,53,104,17,49,98,86,61,18,75,6,54,11,72,95,92,41,87,105,67,7,39,27,35,69,68,38,30,13,26,85,25,74,56,71,37,36,40,65,81,51,0,100,97,4,34,44,33,89,108,9,76,8,23,2,24,62,19,43,42,94,31,82,78,66,102,91,55,21,57,103,10,48,90,90,63,1,58,50
